(set-logic QF_S)
(declare-fun var_0xINPUT_149471 () String)
(assert (and (= (len var_0xINPUT_149471) 0) (= (len var_0xINPUT_149471) 0) (not (= var_0xINPUT_149471 "Example:")) (not (= var_0xINPUT_149471 "AUEAICDdfN"))))
(check-sat var_0xINPUT_149471)